17	4
22	24	28	29	
0	0	0	0	0	3	2	3	4	
2	0	1	8	0	2	5	9	
2	4	0	0	4	3	6	7	8	
10	0	8	0	6	3	10	17	17	
6	3	0	5	10	3	14	16	17	
125	8	0	6	8	1	17	
125	6	6	7	0	1	11	
200	4	5	5	1	1	17	
125	5	0	4	0	3	12	13	17	
250	8	6	6	9	2	16	17	
75	6	0	10	0	2	17	17	
200	1	6	8	1	1	17	
3	0	10	2	9	2	15	17	
9	4	0	3	6	1	17	
1	2	9	2	2	1	17	
1	6	9	1	7	3	17	17	17	
0	0	0	0	0	0	
